************************************************************************
file with basedata            : mm14_.bas
initial value random generator: 1568216103
************************************************************************
projects                      :  1
jobs (incl. supersource/sink ):  12
horizon                       :  91
RESOURCES
  - renewable                 :  2   R
  - nonrenewable              :  2   N
  - doubly constrained        :  0   D
************************************************************************
PROJECT INFORMATION:
pronr.  #jobs rel.date duedate tardcost  MPM-Time
    1     10      0       20        7       20
************************************************************************
PRECEDENCE RELATIONS:
jobnr.    #modes  #successors   successors
   0        1          3           1   2   3
   1        3          2           4   8
   2        3          2           8  10
   3        3          1           6
   4        3          2           5  10
   5        3          1           7
   6        3          3           8   9  10
   7        3          1           9
   8        3          1          11
   9        3          1          11
  10        3          1          11
  11        1          0        
************************************************************************
REQUESTS/DURATIONS:
jobnr. mode duration  R 1  R 2  R 3  R 4  E(W 1)  E(W 2)  E(W 3)
------------------------------------------------------------------------
  0      1     0       0    0    0    0     0       0       0
  1      1     4       5    0    4    5    20      16      20
  2      1     5      10    0    9    5    50      45      25
  3      1     6      10    0    5    7    60      30      42
  4      1     3       0    2    9   10     6      27      30
  5      1     2       0    7   10    6    14      20      12
  6      1     3       0    2    8    7     6      24      21
  7      1     6      10    0    9    4    60      54      24
  8      1     6       2    0    6    8    12      36      48
  9      1     5       0    8    4    5    40      20      25
 10      1     2       4    0    6    9     8      12      18
 11      1     0       0    0    0    0     0       0       0
************************************************************************
RESOURCEAVAILABILITIES:
  R 1  R 2  R 3
   27   58   56
************************************************************************
RESOURCE LIMITS:
jobnr.  l(R 1)  u(R 1)  l(R 2)  u(R 2)  l(R 3)  u(R 3)
------------------------------------------------------------------------
  0        0       0       0       0       0       0
  1        3       5       2       4       3       5
  2        5      10       5       9       3       5
  3        5      10       3       5       4       7
  4        1       2       5       9       5      10
  5        4       7       5      10       3       6
  6        1       2       4       8       4       7
  7        5      10       5       9       2       4
  8        1       2       3       6       4       8
  9        4       8       2       4       3       5
 10        2       4       3       6       5       9
 11        0       0       0       0       0       0
************************************************************************
SCENARIOS:
------------------------------------------------------------------------
RESOURCE k = 1
s = 1: (0, 18, 52, 81, 5, 13, 5, 60, 12, 27, 10, 0)
s = 2: (0, 25, 40, 71, 5, 18, 9, 50, 11, 44, 9, 0)
s = 3: (0, 27, 35, 45, 5, 13, 9, 32, 21, 30, 10, 0)
s = 4: (0, 18, 67, 98, 9, 15, 6, 48, 12, 53, 9, 0)
s = 5: (0, 22, 78, 46, 8, 22, 10, 52, 17, 57, 6, 0)
s = 6: (0, 23, 57, 48, 7, 9, 5, 49, 15, 44, 5, 0)
s = 7: (0, 14, 31, 40, 7, 22, 4, 67, 14, 29, 13, 0)
s = 8: (0, 17, 41, 49, 6, 22, 9, 60, 19, 31, 9, 0)
s = 9: (0, 19, 55, 59, 7, 19, 10, 50, 13, 43, 10, 0)
s = 10: (0, 12, 36, 80, 5, 16, 7, 40, 11, 51, 5, 0)
s = 11: (0, 15, 32, 79, 4, 15, 8, 44, 10, 31, 7, 0)
s = 12: (0, 25, 49, 53, 6, 15, 9, 55, 16, 52, 6, 0)
s = 13: (0, 25, 40, 52, 5, 9, 8, 60, 15, 36, 9, 0)
s = 14: (0, 18, 57, 59, 6, 17, 5, 83, 11, 36, 7, 0)
s = 15: (0, 23, 72, 48, 8, 11, 6, 45, 18, 35, 6, 0)
s = 16: (0, 24, 32, 42, 6, 12, 6, 84, 11, 40, 9, 0)
s = 17: (0, 17, 77, 57, 6, 19, 7, 47, 16, 26, 9, 0)
s = 18: (0, 18, 55, 48, 7, 13, 8, 56, 13, 51, 11, 0)
s = 19: (0, 13, 48, 72, 6, 14, 4, 64, 11, 40, 6, 0)
s = 20: (0, 20, 72, 61, 4, 13, 7, 52, 15, 43, 8, 0)
s = 21: (0, 20, 51, 97, 8, 20, 5, 40, 9, 47, 8, 0)
s = 22: (0, 12, 56, 80, 5, 11, 4, 95, 14, 78, 10, 0)
s = 23: (0, 21, 52, 36, 8, 19, 6, 47, 13, 21, 10, 0)
s = 24: (0, 16, 74, 57, 8, 11, 7, 37, 17, 47, 13, 0)
s = 25: (0, 32, 31, 73, 8, 14, 8, 66, 8, 36, 9, 0)
s = 26: (0, 21, 46, 53, 4, 16, 5, 76, 8, 71, 7, 0)
s = 27: (0, 18, 34, 60, 4, 8, 5, 42, 11, 35, 9, 0)
s = 28: (0, 16, 87, 50, 7, 10, 7, 57, 21, 53, 5, 0)
s = 29: (0, 24, 45, 75, 4, 13, 6, 83, 16, 42, 10, 0)
s = 30: (0, 23, 36, 71, 6, 21, 7, 46, 8, 26, 8, 0)
s = 31: (0, 20, 53, 52, 6, 24, 9, 59, 19, 39, 6, 0)
s = 32: (0, 28, 62, 71, 5, 11, 6, 46, 15, 37, 9, 0)
s = 33: (0, 32, 39, 81, 7, 10, 7, 80, 11, 40, 6, 0)
s = 34: (0, 15, 67, 66, 7, 12, 5, 72, 16, 40, 5, 0)
s = 35: (0, 21, 46, 36, 7, 12, 6, 53, 13, 41, 12, 0)
s = 36: (0, 27, 60, 39, 5, 13, 5, 41, 9, 49, 5, 0)
s = 37: (0, 27, 33, 83, 4, 12, 5, 53, 12, 43, 10, 0)
s = 38: (0, 13, 61, 41, 6, 14, 4, 64, 12, 26, 14, 0)
s = 39: (0, 18, 36, 64, 10, 10, 5, 56, 12, 38, 6, 0)
s = 40: (0, 22, 57, 105, 7, 10, 5, 66, 14, 38, 7, 0)
s = 41: (0, 26, 42, 91, 6, 10, 8, 60, 11, 32, 6, 0)
s = 42: (0, 33, 58, 59, 4, 11, 5, 56, 17, 34, 15, 0)
s = 43: (0, 17, 33, 61, 6, 23, 5, 51, 9, 32, 7, 0)
s = 44: (0, 16, 35, 58, 6, 21, 6, 69, 19, 38, 7, 0)
s = 45: (0, 14, 64, 66, 6, 17, 7, 54, 11, 35, 12, 0)
s = 46: (0, 21, 36, 58, 10, 11, 7, 51, 9, 46, 7, 0)
s = 47: (0, 22, 67, 41, 6, 10, 4, 44, 13, 51, 8, 0)
s = 48: (0, 27, 60, 63, 8, 15, 7, 48, 21, 30, 8, 0)
s = 49: (0, 16, 56, 84, 10, 13, 4, 91, 9, 39, 7, 0)
s = 50: (0, 12, 37, 43, 6, 16, 9, 38, 17, 30, 7, 0)
s = 51: (0, 22, 33, 106, 7, 16, 5, 47, 12, 33, 9, 0)
s = 52: (0, 20, 34, 54, 5, 13, 4, 49, 8, 33, 6, 0)
s = 53: (0, 14, 57, 42, 8, 10, 7, 80, 13, 40, 8, 0)
s = 54: (0, 26, 38, 71, 8, 14, 11, 39, 16, 42, 12, 0)
s = 55: (0, 19, 41, 48, 9, 11, 5, 55, 11, 60, 5, 0)
s = 56: (0, 27, 31, 59, 9, 12, 7, 67, 17, 42, 9, 0)
s = 57: (0, 32, 49, 73, 8, 13, 9, 61, 8, 48, 12, 0)
s = 58: (0, 24, 66, 61, 8, 12, 8, 48, 8, 63, 7, 0)
s = 59: (0, 25, 65, 47, 4, 9, 8, 68, 10, 57, 12, 0)
s = 60: (0, 21, 69, 62, 7, 13, 5, 46, 8, 43, 6, 0)
s = 61: (0, 24, 54, 92, 5, 18, 5, 44, 9, 27, 9, 0)
s = 62: (0, 19, 57, 69, 11, 13, 7, 55, 18, 46, 7, 0)
s = 63: (0, 16, 62, 76, 6, 14, 7, 61, 19, 40, 10, 0)
s = 64: (0, 16, 45, 35, 10, 12, 10, 37, 13, 62, 8, 0)
s = 65: (0, 18, 92, 46, 8, 11, 12, 31, 14, 38, 10, 0)
s = 66: (0, 20, 67, 66, 5, 11, 5, 92, 12, 29, 11, 0)
s = 67: (0, 13, 65, 43, 5, 8, 6, 66, 13, 30, 10, 0)
s = 68: (0, 12, 40, 37, 5, 9, 6, 70, 10, 38, 6, 0)
s = 69: (0, 19, 44, 72, 5, 10, 7, 57, 14, 33, 7, 0)
s = 70: (0, 32, 56, 76, 8, 11, 7, 42, 17, 31, 5, 0)
s = 71: (0, 13, 68, 95, 5, 9, 4, 69, 10, 39, 13, 0)
s = 72: (0, 20, 58, 64, 8, 14, 6, 33, 10, 40, 7, 0)
s = 73: (0, 17, 37, 86, 7, 19, 5, 99, 13, 21, 9, 0)
s = 74: (0, 12, 45, 44, 5, 16, 8, 36, 15, 35, 8, 0)
s = 75: (0, 18, 67, 42, 5, 13, 8, 63, 15, 35, 6, 0)
s = 76: (0, 28, 69, 73, 5, 16, 6, 54, 10, 27, 15, 0)
s = 77: (0, 13, 77, 41, 9, 18, 6, 74, 14, 29, 5, 0)
s = 78: (0, 17, 42, 74, 5, 16, 6, 63, 9, 58, 11, 0)
s = 79: (0, 28, 60, 70, 6, 15, 7, 49, 12, 39, 7, 0)
s = 80: (0, 24, 41, 55, 4, 12, 4, 48, 12, 38, 7, 0)
s = 81: (0, 19, 48, 50, 6, 16, 5, 78, 18, 42, 11, 0)
s = 82: (0, 21, 39, 78, 8, 10, 5, 40, 15, 58, 10, 0)
s = 83: (0, 29, 44, 35, 7, 16, 9, 35, 8, 25, 6, 0)
s = 84: (0, 21, 53, 55, 4, 12, 6, 66, 12, 31, 10, 0)
s = 85: (0, 18, 41, 46, 4, 12, 6, 95, 7, 33, 8, 0)
s = 86: (0, 15, 46, 50, 6, 12, 7, 74, 12, 27, 6, 0)
s = 87: (0, 34, 55, 59, 4, 11, 6, 38, 14, 33, 8, 0)
s = 88: (0, 26, 76, 71, 5, 9, 8, 49, 12, 53, 11, 0)
s = 89: (0, 23, 49, 35, 5, 12, 11, 60, 13, 28, 10, 0)
s = 90: (0, 14, 60, 76, 5, 14, 4, 48, 14, 24, 11, 0)
s = 91: (0, 19, 45, 41, 7, 8, 8, 63, 12, 31, 10, 0)
s = 92: (0, 20, 70, 42, 6, 12, 5, 46, 13, 29, 7, 0)
s = 93: (0, 28, 61, 45, 6, 19, 7, 60, 16, 54, 6, 0)
s = 94: (0, 19, 50, 37, 9, 22, 9, 42, 9, 37, 9, 0)
s = 95: (0, 14, 60, 62, 7, 13, 5, 86, 15, 34, 12, 0)
s = 96: (0, 15, 50, 81, 5, 11, 6, 64, 12, 42, 13, 0)
s = 97: (0, 19, 84, 63, 6, 23, 7, 72, 12, 42, 6, 0)
s = 98: (0, 12, 45, 47, 4, 18, 4, 48, 19, 45, 9, 0)
s = 99: (0, 18, 38, 38, 5, 11, 7, 82, 8, 44, 9, 0)
s = 100: (0, 16, 53, 50, 9, 13, 6, 75, 10, 42, 8, 0)
s = 101: (0, 27, 54, 36, 6, 16, 6, 69, 7, 21, 11, 0)
s = 102: (0, 13, 37, 64, 7, 13, 6, 84, 13, 32, 10, 0)
s = 103: (0, 27, 59, 65, 7, 13, 8, 63, 11, 39, 8, 0)
s = 104: (0, 20, 28, 46, 10, 15, 5, 50, 15, 26, 8, 0)
s = 105: (0, 12, 70, 76, 7, 9, 7, 55, 21, 55, 11, 0)
s = 106: (0, 23, 48, 49, 7, 11, 7, 36, 11, 21, 13, 0)
s = 107: (0, 24, 51, 51, 7, 18, 6, 55, 13, 24, 8, 0)
s = 108: (0, 21, 66, 65, 7, 15, 9, 57, 10, 39, 12, 0)
s = 109: (0, 14, 64, 70, 11, 10, 8, 87, 13, 38, 8, 0)
s = 110: (0, 27, 38, 72, 4, 22, 6, 68, 17, 46, 11, 0)
s = 111: (0, 18, 40, 75, 9, 18, 8, 52, 8, 34, 8, 0)
s = 112: (0, 18, 65, 57, 5, 12, 8, 61, 20, 51, 10, 0)
s = 113: (0, 11, 46, 102, 5, 25, 7, 58, 16, 32, 11, 0)
s = 114: (0, 12, 34, 40, 7, 10, 6, 44, 10, 44, 7, 0)
s = 115: (0, 14, 59, 83, 4, 16, 4, 76, 7, 54, 13, 0)
s = 116: (0, 19, 47, 71, 5, 18, 8, 82, 10, 37, 8, 0)
s = 117: (0, 16, 40, 55, 8, 9, 5, 48, 14, 31, 13, 0)
s = 118: (0, 33, 77, 48, 6, 16, 6, 41, 18, 27, 7, 0)
s = 119: (0, 14, 46, 47, 9, 13, 8, 74, 13, 39, 10, 0)
s = 120: (0, 27, 61, 45, 6, 20, 8, 56, 16, 48, 7, 0)
s = 121: (0, 22, 81, 63, 6, 14, 9, 80, 14, 52, 7, 0)
s = 122: (0, 22, 36, 70, 6, 13, 8, 44, 11, 21, 7, 0)
s = 123: (0, 18, 58, 44, 5, 11, 6, 49, 15, 59, 8, 0)
s = 124: (0, 24, 41, 49, 6, 15, 6, 91, 16, 32, 6, 0)
s = 125: (0, 19, 46, 38, 7, 14, 5, 50, 11, 74, 5, 0)
s = 126: (0, 16, 69, 49, 5, 14, 8, 57, 10, 44, 7, 0)
s = 127: (0, 23, 33, 80, 6, 12, 9, 59, 14, 35, 10, 0)
s = 128: (0, 25, 28, 77, 9, 16, 6, 39, 13, 34, 9, 0)
s = 129: (0, 16, 47, 85, 5, 11, 5, 42, 9, 48, 9, 0)
s = 130: (0, 24, 87, 44, 8, 10, 4, 54, 14, 49, 9, 0)
s = 131: (0, 20, 31, 85, 7, 12, 10, 98, 10, 51, 16, 0)
s = 132: (0, 18, 26, 59, 6, 14, 7, 60, 11, 36, 7, 0)
s = 133: (0, 20, 33, 76, 8, 22, 8, 39, 16, 45, 11, 0)
s = 134: (0, 22, 45, 69, 6, 17, 4, 44, 14, 35, 5, 0)
s = 135: (0, 16, 82, 89, 5, 16, 9, 45, 14, 43, 7, 0)
s = 136: (0, 13, 54, 63, 5, 15, 5, 64, 14, 57, 6, 0)
s = 137: (0, 19, 72, 44, 10, 8, 5, 37, 17, 35, 9, 0)
s = 138: (0, 25, 48, 53, 6, 13, 8, 78, 12, 28, 8, 0)
s = 139: (0, 20, 75, 48, 5, 14, 5, 40, 9, 26, 9, 0)
s = 140: (0, 17, 41, 53, 7, 13, 5, 44, 16, 22, 7, 0)
s = 141: (0, 12, 40, 50, 8, 20, 4, 57, 20, 32, 10, 0)
s = 142: (0, 22, 71, 53, 4, 9, 4, 82, 15, 34, 14, 0)
s = 143: (0, 17, 44, 48, 8, 11, 4, 47, 19, 42, 8, 0)
s = 144: (0, 17, 57, 63, 7, 16, 4, 61, 14, 46, 14, 0)
s = 145: (0, 16, 51, 88, 6, 13, 7, 41, 11, 29, 8, 0)
s = 146: (0, 18, 59, 95, 7, 18, 6, 73, 12, 32, 6, 0)
s = 147: (0, 18, 94, 60, 6, 19, 6, 74, 9, 60, 8, 0)
s = 148: (0, 18, 75, 47, 10, 15, 7, 60, 18, 28, 8, 0)
s = 149: (0, 22, 61, 45, 4, 16, 8, 56, 8, 33, 11, 0)
s = 150: (0, 19, 42, 42, 4, 8, 7, 49, 14, 53, 7, 0)
s = 151: (0, 19, 36, 88, 4, 13, 5, 74, 15, 45, 8, 0)
s = 152: (0, 17, 49, 43, 4, 17, 9, 48, 9, 43, 6, 0)
s = 153: (0, 23, 49, 83, 6, 12, 7, 48, 11, 46, 7, 0)
s = 154: (0, 21, 45, 35, 7, 12, 6, 48, 14, 53, 12, 0)
s = 155: (0, 19, 43, 60, 7, 8, 11, 46, 10, 49, 6, 0)
s = 156: (0, 18, 30, 48, 6, 19, 8, 73, 11, 27, 6, 0)
s = 157: (0, 21, 43, 64, 6, 13, 7, 100, 18, 41, 9, 0)
s = 158: (0, 15, 49, 55, 10, 19, 11, 37, 8, 44, 10, 0)
s = 159: (0, 25, 45, 55, 6, 14, 6, 56, 11, 42, 10, 0)
s = 160: (0, 18, 55, 55, 7, 18, 8, 92, 12, 60, 6, 0)
s = 161: (0, 22, 35, 37, 5, 18, 8, 39, 8, 42, 12, 0)
s = 162: (0, 23, 45, 60, 4, 15, 9, 72, 12, 56, 9, 0)
s = 163: (0, 25, 45, 41, 6, 23, 4, 37, 18, 43, 10, 0)
s = 164: (0, 33, 53, 65, 6, 17, 9, 42, 11, 44, 5, 0)
s = 165: (0, 13, 28, 94, 10, 11, 7, 99, 13, 55, 8, 0)
s = 166: (0, 24, 28, 69, 5, 15, 8, 74, 9, 30, 11, 0)
s = 167: (0, 22, 76, 58, 8, 14, 7, 41, 20, 31, 6, 0)
s = 168: (0, 22, 33, 70, 4, 10, 9, 50, 12, 24, 15, 0)
s = 169: (0, 16, 36, 40, 8, 21, 7, 77, 12, 26, 6, 0)
s = 170: (0, 15, 46, 69, 5, 16, 6, 66, 9, 24, 6, 0)
s = 171: (0, 24, 61, 45, 7, 13, 5, 93, 17, 61, 7, 0)
s = 172: (0, 14, 48, 56, 6, 21, 7, 37, 13, 34, 9, 0)
s = 173: (0, 21, 48, 77, 6, 11, 5, 69, 9, 24, 5, 0)
s = 174: (0, 14, 76, 44, 7, 9, 5, 60, 9, 40, 9, 0)
s = 175: (0, 19, 63, 64, 6, 13, 10, 59, 10, 53, 12, 0)
s = 176: (0, 29, 71, 51, 9, 16, 6, 37, 18, 34, 6, 0)
s = 177: (0, 18, 31, 93, 6, 20, 4, 95, 9, 58, 9, 0)
s = 178: (0, 16, 34, 69, 5, 12, 6, 74, 10, 22, 8, 0)
s = 179: (0, 16, 41, 51, 5, 21, 5, 43, 9, 54, 10, 0)
s = 180: (0, 23, 44, 64, 7, 11, 5, 49, 10, 29, 8, 0)
s = 181: (0, 12, 40, 54, 4, 13, 7, 85, 15, 41, 6, 0)
s = 182: (0, 22, 50, 65, 5, 16, 5, 61, 9, 29, 5, 0)
s = 183: (0, 20, 37, 98, 5, 25, 4, 67, 20, 42, 9, 0)
s = 184: (0, 14, 45, 53, 10, 12, 5, 50, 9, 54, 10, 0)
s = 185: (0, 13, 70, 76, 10, 19, 5, 42, 14, 37, 8, 0)
s = 186: (0, 32, 57, 44, 7, 10, 5, 70, 13, 27, 12, 0)
s = 187: (0, 15, 80, 37, 8, 15, 4, 38, 15, 52, 8, 0)
s = 188: (0, 19, 59, 65, 5, 11, 5, 74, 13, 38, 7, 0)
s = 189: (0, 27, 64, 71, 9, 10, 6, 61, 13, 34, 8, 0)
s = 190: (0, 17, 27, 51, 9, 11, 7, 43, 12, 32, 6, 0)
s = 191: (0, 21, 41, 65, 5, 13, 4, 86, 20, 38, 12, 0)
s = 192: (0, 13, 42, 48, 4, 12, 6, 53, 13, 46, 8, 0)
s = 193: (0, 24, 45, 56, 7, 17, 7, 52, 10, 37, 10, 0)
s = 194: (0, 16, 42, 65, 8, 18, 9, 53, 17, 31, 7, 0)
s = 195: (0, 27, 58, 101, 10, 22, 8, 70, 9, 42, 7, 0)
s = 196: (0, 12, 63, 52, 6, 10, 8, 46, 10, 55, 7, 0)
s = 197: (0, 13, 57, 65, 5, 23, 8, 53, 12, 42, 6, 0)
s = 198: (0, 15, 44, 77, 5, 12, 6, 42, 11, 34, 8, 0)
s = 199: (0, 16, 56, 95, 5, 12, 7, 39, 9, 57, 9, 0)
s = 200: (0, 16, 31, 43, 7, 11, 8, 47, 14, 53, 8, 0)
------------------------------------------------------------------------
RESOURCE k = 2
s = 1: (0, 15, 47, 41, 22, 18, 20, 54, 35, 14, 15, 0)
s = 2: (0, 20, 36, 36, 23, 25, 36, 45, 33, 22, 13, 0)
s = 3: (0, 21, 31, 23, 21, 19, 34, 29, 61, 15, 15, 0)
s = 4: (0, 14, 60, 49, 38, 21, 24, 43, 35, 27, 13, 0)
s = 5: (0, 18, 71, 23, 35, 31, 40, 47, 50, 29, 9, 0)
s = 6: (0, 19, 51, 24, 30, 12, 20, 44, 43, 22, 8, 0)
s = 7: (0, 11, 28, 20, 30, 31, 14, 61, 41, 15, 19, 0)
s = 8: (0, 13, 37, 25, 24, 31, 34, 54, 57, 16, 14, 0)
s = 9: (0, 15, 50, 30, 31, 27, 40, 45, 37, 22, 15, 0)
s = 10: (0, 10, 32, 40, 23, 23, 26, 36, 32, 26, 8, 0)
s = 11: (0, 12, 29, 40, 15, 21, 32, 40, 30, 16, 11, 0)
s = 12: (0, 20, 44, 27, 27, 21, 35, 49, 48, 26, 8, 0)
s = 13: (0, 20, 36, 26, 23, 12, 29, 54, 45, 18, 13, 0)
s = 14: (0, 14, 51, 30, 27, 24, 18, 75, 32, 18, 11, 0)
s = 15: (0, 19, 65, 24, 36, 16, 21, 40, 52, 18, 9, 0)
s = 16: (0, 20, 29, 21, 27, 16, 24, 76, 31, 20, 14, 0)
s = 17: (0, 14, 69, 29, 26, 28, 27, 43, 48, 13, 13, 0)
s = 18: (0, 15, 50, 24, 29, 19, 29, 51, 38, 26, 16, 0)
s = 19: (0, 11, 43, 36, 27, 20, 13, 58, 33, 20, 9, 0)
s = 20: (0, 16, 65, 31, 17, 18, 28, 47, 44, 22, 12, 0)
s = 21: (0, 16, 46, 49, 33, 28, 18, 36, 27, 24, 11, 0)
s = 22: (0, 10, 51, 40, 19, 15, 14, 85, 41, 39, 15, 0)
s = 23: (0, 17, 47, 18, 33, 28, 22, 42, 37, 11, 14, 0)
s = 24: (0, 13, 66, 29, 34, 16, 26, 34, 49, 24, 19, 0)
s = 25: (0, 25, 28, 37, 35, 20, 31, 60, 23, 18, 13, 0)
s = 26: (0, 17, 41, 27, 17, 22, 19, 68, 24, 36, 10, 0)
s = 27: (0, 14, 31, 30, 17, 11, 17, 37, 33, 18, 13, 0)
s = 28: (0, 13, 79, 25, 28, 14, 26, 52, 62, 27, 7, 0)
s = 29: (0, 19, 41, 38, 16, 18, 24, 75, 47, 21, 15, 0)
s = 30: (0, 18, 33, 36, 25, 30, 27, 42, 24, 13, 12, 0)
s = 31: (0, 16, 47, 26, 25, 34, 33, 53, 57, 20, 8, 0)
s = 32: (0, 22, 55, 36, 22, 16, 21, 42, 45, 19, 13, 0)
s = 33: (0, 25, 35, 41, 30, 14, 26, 72, 31, 20, 9, 0)
s = 34: (0, 12, 61, 33, 29, 16, 20, 64, 46, 20, 8, 0)
s = 35: (0, 17, 42, 18, 28, 17, 21, 48, 38, 21, 18, 0)
s = 36: (0, 22, 54, 20, 22, 18, 20, 37, 27, 25, 8, 0)
s = 37: (0, 21, 30, 42, 18, 17, 17, 48, 35, 22, 14, 0)
s = 38: (0, 10, 55, 21, 25, 20, 14, 57, 35, 13, 20, 0)
s = 39: (0, 14, 32, 32, 45, 14, 20, 50, 34, 19, 9, 0)
s = 40: (0, 17, 52, 53, 28, 14, 18, 60, 41, 19, 11, 0)
s = 41: (0, 21, 38, 46, 24, 14, 30, 54, 32, 16, 9, 0)
s = 42: (0, 27, 52, 30, 17, 15, 18, 50, 49, 17, 22, 0)
s = 43: (0, 14, 30, 31, 24, 32, 20, 46, 25, 16, 10, 0)
s = 44: (0, 13, 31, 29, 25, 29, 24, 63, 55, 19, 10, 0)
s = 45: (0, 12, 58, 33, 25, 24, 25, 49, 32, 18, 17, 0)
s = 46: (0, 17, 33, 29, 43, 15, 27, 46, 27, 23, 10, 0)
s = 47: (0, 18, 61, 21, 23, 15, 15, 40, 39, 26, 12, 0)
s = 48: (0, 22, 54, 32, 35, 22, 25, 43, 61, 15, 12, 0)
s = 49: (0, 13, 50, 42, 43, 18, 15, 82, 26, 20, 11, 0)
s = 50: (0, 10, 34, 22, 27, 22, 36, 34, 49, 15, 10, 0)
s = 51: (0, 18, 30, 53, 32, 23, 17, 42, 34, 17, 13, 0)
s = 52: (0, 16, 31, 27, 20, 18, 15, 44, 24, 17, 9, 0)
s = 53: (0, 11, 52, 21, 34, 14, 26, 72, 37, 20, 11, 0)
s = 54: (0, 21, 35, 36, 35, 20, 43, 35, 46, 21, 18, 0)
s = 55: (0, 15, 37, 24, 39, 16, 20, 50, 31, 30, 8, 0)
s = 56: (0, 22, 28, 30, 37, 17, 25, 60, 51, 21, 13, 0)
s = 57: (0, 26, 44, 37, 36, 19, 36, 55, 23, 24, 18, 0)
s = 58: (0, 20, 60, 31, 32, 17, 30, 43, 22, 32, 11, 0)
s = 59: (0, 20, 58, 24, 18, 12, 29, 61, 30, 29, 18, 0)
s = 60: (0, 17, 63, 31, 31, 18, 19, 41, 23, 22, 9, 0)
s = 61: (0, 19, 48, 46, 19, 25, 18, 40, 26, 14, 14, 0)
s = 62: (0, 15, 51, 35, 46, 18, 25, 50, 53, 23, 10, 0)
s = 63: (0, 13, 56, 38, 26, 20, 25, 55, 56, 20, 15, 0)
s = 64: (0, 13, 41, 18, 43, 17, 37, 33, 39, 31, 11, 0)
s = 65: (0, 15, 83, 23, 34, 16, 47, 28, 41, 19, 14, 0)
s = 66: (0, 16, 60, 33, 23, 16, 18, 83, 36, 15, 17, 0)
s = 67: (0, 10, 59, 22, 23, 11, 21, 59, 39, 15, 15, 0)
s = 68: (0, 10, 36, 19, 19, 12, 22, 63, 29, 19, 9, 0)
s = 69: (0, 16, 40, 36, 23, 14, 25, 51, 41, 17, 10, 0)
s = 70: (0, 26, 50, 38, 35, 16, 25, 38, 50, 16, 7, 0)
s = 71: (0, 10, 62, 48, 19, 13, 14, 63, 29, 20, 19, 0)
s = 72: (0, 16, 52, 32, 36, 20, 23, 30, 30, 20, 10, 0)
s = 73: (0, 13, 34, 43, 28, 26, 18, 89, 37, 11, 13, 0)
s = 74: (0, 9, 41, 22, 21, 23, 29, 33, 44, 18, 11, 0)
s = 75: (0, 14, 60, 21, 23, 18, 31, 57, 44, 18, 8, 0)
s = 76: (0, 23, 62, 37, 21, 23, 23, 49, 30, 14, 22, 0)
s = 77: (0, 11, 69, 21, 37, 25, 22, 67, 41, 15, 8, 0)
s = 78: (0, 13, 38, 37, 21, 23, 23, 57, 26, 29, 16, 0)
s = 79: (0, 23, 54, 35, 26, 21, 25, 44, 34, 20, 11, 0)
s = 80: (0, 19, 37, 28, 18, 17, 14, 43, 34, 19, 11, 0)
s = 81: (0, 15, 43, 25, 25, 23, 17, 70, 54, 21, 17, 0)
s = 82: (0, 17, 35, 39, 34, 14, 19, 36, 43, 29, 14, 0)
s = 83: (0, 23, 39, 18, 28, 23, 36, 32, 24, 13, 9, 0)
s = 84: (0, 17, 47, 28, 16, 17, 22, 59, 34, 16, 14, 0)
s = 85: (0, 14, 37, 23, 16, 17, 21, 86, 20, 17, 12, 0)
s = 86: (0, 12, 41, 25, 25, 16, 25, 67, 36, 14, 9, 0)
s = 87: (0, 27, 49, 30, 18, 16, 21, 34, 41, 17, 12, 0)
s = 88: (0, 21, 69, 36, 21, 13, 30, 44, 35, 27, 16, 0)
s = 89: (0, 18, 44, 18, 22, 18, 41, 54, 37, 14, 15, 0)
s = 90: (0, 11, 54, 38, 20, 20, 16, 43, 40, 12, 16, 0)
s = 91: (0, 15, 40, 21, 28, 11, 32, 57, 35, 16, 14, 0)
s = 92: (0, 16, 63, 21, 25, 17, 18, 42, 37, 15, 10, 0)
s = 93: (0, 23, 55, 23, 27, 27, 25, 54, 46, 27, 8, 0)
s = 94: (0, 15, 45, 19, 37, 31, 35, 38, 25, 19, 13, 0)
s = 95: (0, 12, 54, 31, 28, 19, 19, 77, 43, 17, 18, 0)
s = 96: (0, 12, 45, 41, 22, 15, 22, 58, 35, 21, 19, 0)
s = 97: (0, 15, 76, 32, 27, 33, 26, 64, 34, 21, 9, 0)
s = 98: (0, 10, 41, 24, 18, 25, 15, 44, 55, 23, 13, 0)
s = 99: (0, 15, 34, 19, 20, 15, 26, 74, 22, 22, 14, 0)
s = 100: (0, 13, 48, 25, 39, 18, 21, 68, 28, 21, 12, 0)
s = 101: (0, 22, 48, 18, 23, 23, 21, 62, 19, 11, 17, 0)
s = 102: (0, 10, 34, 32, 32, 18, 23, 76, 38, 16, 14, 0)
s = 103: (0, 22, 53, 33, 31, 18, 32, 57, 31, 20, 12, 0)
s = 104: (0, 16, 25, 23, 45, 21, 18, 45, 43, 13, 11, 0)
s = 105: (0, 10, 63, 38, 29, 13, 25, 49, 62, 28, 17, 0)
s = 106: (0, 19, 44, 25, 30, 15, 28, 33, 31, 11, 19, 0)
s = 107: (0, 19, 46, 26, 31, 25, 22, 50, 38, 12, 12, 0)
s = 108: (0, 17, 59, 33, 29, 22, 33, 52, 30, 20, 18, 0)
s = 109: (0, 11, 58, 35, 47, 13, 29, 78, 37, 19, 12, 0)
s = 110: (0, 22, 34, 36, 18, 31, 24, 61, 51, 23, 16, 0)
s = 111: (0, 14, 36, 38, 40, 25, 30, 47, 24, 17, 11, 0)
s = 112: (0, 14, 58, 29, 20, 17, 32, 55, 58, 26, 15, 0)
s = 113: (0, 9, 42, 51, 21, 36, 28, 52, 46, 16, 17, 0)
s = 114: (0, 10, 30, 20, 31, 14, 21, 39, 29, 22, 11, 0)
s = 115: (0, 11, 53, 42, 17, 22, 16, 69, 21, 27, 19, 0)
s = 116: (0, 15, 42, 36, 21, 25, 29, 74, 29, 19, 12, 0)
s = 117: (0, 13, 36, 28, 34, 13, 17, 43, 42, 16, 19, 0)
s = 118: (0, 27, 69, 24, 27, 22, 21, 37, 53, 14, 11, 0)
s = 119: (0, 11, 41, 24, 38, 19, 30, 67, 37, 20, 14, 0)
s = 120: (0, 22, 55, 23, 27, 29, 30, 51, 46, 24, 10, 0)
s = 121: (0, 18, 73, 32, 27, 20, 36, 72, 40, 26, 10, 0)
s = 122: (0, 17, 33, 35, 27, 18, 29, 39, 31, 11, 11, 0)
s = 123: (0, 14, 52, 22, 20, 16, 24, 44, 43, 30, 11, 0)
s = 124: (0, 19, 37, 25, 26, 21, 22, 82, 47, 16, 9, 0)
s = 125: (0, 15, 41, 19, 31, 19, 20, 45, 32, 37, 8, 0)
s = 126: (0, 13, 62, 25, 20, 20, 31, 52, 29, 22, 10, 0)
s = 127: (0, 18, 30, 40, 25, 17, 35, 53, 40, 18, 15, 0)
s = 128: (0, 20, 26, 39, 38, 22, 24, 35, 39, 17, 14, 0)
s = 129: (0, 13, 43, 43, 22, 15, 17, 38, 27, 24, 14, 0)
s = 130: (0, 19, 79, 22, 35, 14, 14, 48, 41, 25, 13, 0)
s = 131: (0, 16, 28, 43, 31, 16, 37, 89, 30, 26, 23, 0)
s = 132: (0, 15, 24, 30, 23, 20, 26, 54, 33, 18, 10, 0)
s = 133: (0, 16, 30, 38, 36, 31, 32, 35, 47, 23, 16, 0)
s = 134: (0, 17, 41, 35, 23, 25, 16, 40, 41, 18, 8, 0)
s = 135: (0, 13, 74, 45, 21, 23, 33, 40, 40, 22, 10, 0)
s = 136: (0, 10, 48, 32, 22, 22, 20, 58, 40, 29, 9, 0)
s = 137: (0, 16, 65, 22, 44, 11, 19, 33, 50, 18, 14, 0)
s = 138: (0, 20, 44, 27, 25, 19, 31, 70, 34, 14, 12, 0)
s = 139: (0, 16, 67, 24, 20, 20, 18, 36, 25, 13, 14, 0)
s = 140: (0, 14, 37, 27, 28, 18, 17, 40, 47, 11, 10, 0)
s = 141: (0, 10, 36, 25, 33, 29, 15, 51, 59, 16, 14, 0)
s = 142: (0, 18, 64, 27, 17, 13, 16, 74, 45, 17, 20, 0)
s = 143: (0, 14, 40, 24, 35, 15, 16, 42, 57, 21, 11, 0)
s = 144: (0, 14, 52, 32, 29, 23, 13, 55, 40, 23, 21, 0)
s = 145: (0, 13, 46, 44, 24, 18, 25, 37, 33, 15, 11, 0)
s = 146: (0, 15, 53, 48, 31, 26, 23, 66, 36, 16, 8, 0)
s = 147: (0, 15, 85, 30, 25, 27, 21, 66, 25, 30, 12, 0)
s = 148: (0, 15, 68, 24, 45, 21, 26, 54, 54, 14, 12, 0)
s = 149: (0, 18, 55, 23, 16, 23, 30, 51, 23, 17, 16, 0)
s = 150: (0, 15, 38, 21, 18, 12, 28, 44, 40, 27, 10, 0)
s = 151: (0, 16, 33, 44, 18, 19, 20, 67, 44, 23, 12, 0)
s = 152: (0, 14, 44, 22, 16, 24, 34, 43, 26, 22, 9, 0)
s = 153: (0, 18, 44, 42, 23, 17, 26, 43, 33, 23, 10, 0)
s = 154: (0, 17, 41, 18, 31, 17, 24, 43, 41, 27, 17, 0)
s = 155: (0, 15, 39, 30, 31, 12, 41, 41, 30, 25, 9, 0)
s = 156: (0, 14, 27, 24, 24, 27, 29, 66, 32, 14, 9, 0)
s = 157: (0, 17, 39, 32, 26, 19, 25, 90, 52, 21, 13, 0)
s = 158: (0, 12, 44, 28, 42, 27, 43, 34, 22, 22, 14, 0)
s = 159: (0, 20, 40, 28, 25, 20, 23, 50, 32, 21, 15, 0)
s = 160: (0, 14, 50, 28, 30, 25, 31, 83, 36, 30, 9, 0)
s = 161: (0, 18, 32, 19, 23, 26, 31, 35, 24, 21, 18, 0)
s = 162: (0, 19, 41, 30, 17, 21, 34, 65, 34, 28, 14, 0)
s = 163: (0, 20, 40, 21, 23, 32, 15, 33, 54, 22, 14, 0)
s = 164: (0, 26, 48, 33, 27, 24, 33, 38, 32, 22, 7, 0)
s = 165: (0, 10, 25, 47, 41, 15, 26, 89, 38, 28, 12, 0)
s = 166: (0, 20, 25, 35, 19, 21, 32, 66, 25, 15, 16, 0)
s = 167: (0, 18, 69, 29, 33, 19, 27, 37, 59, 16, 8, 0)
s = 168: (0, 18, 30, 35, 16, 14, 34, 45, 35, 12, 22, 0)
s = 169: (0, 13, 32, 20, 33, 30, 25, 69, 34, 13, 9, 0)
s = 170: (0, 12, 42, 35, 19, 22, 24, 59, 27, 12, 9, 0)
s = 171: (0, 19, 55, 23, 28, 18, 18, 84, 49, 31, 10, 0)
s = 172: (0, 11, 43, 28, 23, 29, 26, 33, 37, 17, 14, 0)
s = 173: (0, 17, 44, 39, 25, 15, 17, 62, 26, 12, 7, 0)
s = 174: (0, 11, 68, 22, 28, 13, 17, 54, 26, 20, 14, 0)
s = 175: (0, 15, 56, 32, 25, 19, 40, 53, 28, 27, 18, 0)
s = 176: (0, 23, 64, 26, 38, 23, 24, 33, 52, 17, 9, 0)
s = 177: (0, 14, 28, 47, 26, 28, 14, 85, 27, 29, 13, 0)
s = 178: (0, 13, 31, 35, 23, 18, 21, 66, 29, 11, 11, 0)
s = 179: (0, 13, 37, 26, 20, 30, 18, 38, 26, 27, 15, 0)
s = 180: (0, 19, 40, 32, 28, 15, 19, 44, 28, 15, 12, 0)
s = 181: (0, 10, 36, 27, 18, 18, 27, 76, 44, 21, 9, 0)
s = 182: (0, 17, 45, 33, 21, 22, 18, 55, 27, 15, 8, 0)
s = 183: (0, 16, 33, 49, 20, 35, 15, 60, 59, 21, 13, 0)
s = 184: (0, 11, 41, 27, 42, 18, 18, 45, 26, 27, 15, 0)
s = 185: (0, 10, 63, 38, 44, 27, 20, 38, 40, 19, 12, 0)
s = 186: (0, 26, 51, 22, 29, 14, 19, 63, 37, 14, 18, 0)
s = 187: (0, 12, 72, 19, 36, 21, 14, 34, 43, 26, 11, 0)
s = 188: (0, 16, 53, 33, 23, 16, 17, 67, 39, 19, 10, 0)
s = 189: (0, 21, 58, 36, 41, 14, 24, 55, 38, 17, 11, 0)
s = 190: (0, 14, 25, 26, 39, 16, 25, 39, 35, 16, 9, 0)
s = 191: (0, 17, 37, 33, 21, 18, 14, 77, 58, 19, 18, 0)
s = 192: (0, 11, 38, 24, 16, 16, 21, 48, 39, 23, 11, 0)
s = 193: (0, 19, 40, 28, 28, 24, 25, 47, 28, 19, 15, 0)
s = 194: (0, 13, 38, 33, 36, 26, 33, 47, 49, 16, 10, 0)
s = 195: (0, 22, 52, 51, 44, 32, 32, 63, 26, 21, 10, 0)
s = 196: (0, 9, 57, 26, 25, 14, 30, 41, 29, 28, 10, 0)
s = 197: (0, 10, 51, 33, 20, 33, 31, 48, 36, 21, 9, 0)
s = 198: (0, 12, 40, 39, 19, 17, 21, 38, 33, 17, 12, 0)
s = 199: (0, 13, 50, 48, 19, 17, 26, 35, 26, 29, 14, 0)
s = 200: (0, 13, 28, 22, 30, 15, 30, 42, 41, 27, 11, 0)
------------------------------------------------------------------------
RESOURCE k = 3
s = 1: (0, 18, 26, 57, 24, 11, 18, 24, 47, 17, 23, 0)
s = 2: (0, 25, 20, 50, 25, 15, 32, 20, 44, 28, 20, 0)
s = 3: (0, 27, 18, 32, 23, 11, 30, 13, 81, 19, 23, 0)
s = 4: (0, 18, 34, 68, 43, 13, 21, 19, 46, 34, 19, 0)
s = 5: (0, 22, 39, 32, 39, 19, 35, 21, 67, 36, 13, 0)
s = 6: (0, 23, 29, 34, 33, 8, 18, 20, 57, 28, 12, 0)
s = 7: (0, 14, 16, 28, 33, 19, 12, 27, 54, 18, 29, 0)
s = 8: (0, 17, 21, 34, 26, 19, 30, 24, 76, 19, 20, 0)
s = 9: (0, 19, 28, 41, 35, 17, 35, 20, 49, 27, 23, 0)
s = 10: (0, 12, 18, 56, 25, 14, 23, 16, 43, 32, 11, 0)
s = 11: (0, 15, 16, 55, 16, 13, 28, 18, 40, 20, 16, 0)
s = 12: (0, 25, 25, 37, 30, 13, 31, 22, 64, 33, 12, 0)
s = 13: (0, 25, 20, 36, 25, 8, 25, 24, 60, 23, 19, 0)
s = 14: (0, 18, 29, 42, 30, 15, 16, 34, 42, 23, 16, 0)
s = 15: (0, 23, 36, 34, 40, 10, 19, 18, 69, 22, 14, 0)
s = 16: (0, 24, 16, 30, 30, 10, 21, 34, 41, 25, 20, 0)
s = 17: (0, 17, 39, 40, 29, 17, 24, 19, 64, 17, 19, 0)
s = 18: (0, 18, 28, 34, 32, 12, 25, 23, 50, 32, 24, 0)
s = 19: (0, 13, 24, 51, 30, 12, 12, 26, 44, 25, 13, 0)
s = 20: (0, 20, 36, 43, 18, 11, 25, 21, 59, 27, 17, 0)
s = 21: (0, 20, 26, 68, 36, 17, 16, 16, 35, 30, 17, 0)
s = 22: (0, 12, 28, 56, 21, 9, 12, 38, 54, 49, 23, 0)
s = 23: (0, 21, 26, 25, 36, 17, 19, 19, 49, 13, 21, 0)
s = 24: (0, 16, 37, 40, 38, 10, 23, 15, 65, 30, 29, 0)
s = 25: (0, 32, 16, 52, 39, 12, 27, 27, 30, 23, 20, 0)
s = 26: (0, 21, 23, 37, 19, 13, 17, 31, 31, 45, 14, 0)
s = 27: (0, 18, 17, 42, 19, 7, 15, 17, 44, 22, 19, 0)
s = 28: (0, 16, 44, 35, 31, 9, 23, 23, 83, 34, 11, 0)
s = 29: (0, 24, 23, 53, 18, 11, 21, 34, 62, 27, 23, 0)
s = 30: (0, 23, 18, 50, 28, 18, 24, 19, 32, 17, 17, 0)
s = 31: (0, 20, 27, 37, 28, 21, 29, 24, 76, 24, 12, 0)
s = 32: (0, 28, 31, 50, 24, 10, 18, 19, 60, 23, 19, 0)
s = 33: (0, 32, 20, 57, 34, 8, 23, 32, 42, 25, 13, 0)
s = 34: (0, 15, 34, 46, 32, 10, 18, 29, 61, 25, 11, 0)
s = 35: (0, 21, 23, 25, 31, 11, 18, 21, 50, 26, 27, 0)
s = 36: (0, 27, 30, 28, 24, 11, 18, 17, 36, 31, 11, 0)
s = 37: (0, 27, 17, 58, 20, 11, 15, 22, 46, 27, 21, 0)
s = 38: (0, 13, 31, 29, 27, 12, 13, 26, 47, 16, 30, 0)
s = 39: (0, 18, 18, 45, 50, 9, 18, 23, 46, 24, 13, 0)
s = 40: (0, 22, 29, 74, 31, 9, 15, 27, 54, 24, 16, 0)
s = 41: (0, 26, 21, 64, 27, 9, 26, 24, 43, 20, 13, 0)
s = 42: (0, 33, 29, 41, 19, 9, 16, 23, 65, 21, 33, 0)
s = 43: (0, 17, 17, 43, 26, 19, 17, 21, 33, 20, 14, 0)
s = 44: (0, 16, 18, 40, 28, 18, 21, 28, 73, 24, 15, 0)
s = 45: (0, 14, 32, 46, 28, 15, 22, 22, 43, 22, 26, 0)
s = 46: (0, 21, 18, 41, 48, 9, 24, 21, 36, 29, 15, 0)
s = 47: (0, 22, 34, 29, 26, 9, 13, 18, 52, 32, 18, 0)
s = 48: (0, 27, 30, 44, 39, 13, 22, 20, 81, 19, 18, 0)
s = 49: (0, 16, 28, 59, 48, 11, 13, 37, 35, 25, 16, 0)
s = 50: (0, 12, 19, 30, 30, 14, 32, 15, 65, 19, 14, 0)
s = 51: (0, 22, 17, 75, 35, 14, 15, 19, 46, 21, 19, 0)
s = 52: (0, 20, 17, 38, 23, 11, 13, 20, 32, 21, 13, 0)
s = 53: (0, 14, 29, 29, 38, 9, 23, 32, 50, 25, 16, 0)
s = 54: (0, 26, 19, 50, 39, 12, 37, 16, 61, 27, 27, 0)
s = 55: (0, 19, 21, 34, 44, 10, 18, 22, 41, 38, 11, 0)
s = 56: (0, 27, 16, 42, 41, 11, 22, 27, 68, 26, 19, 0)
s = 57: (0, 32, 25, 51, 40, 11, 32, 25, 31, 30, 27, 0)
s = 58: (0, 24, 33, 43, 36, 10, 27, 20, 29, 39, 16, 0)
s = 59: (0, 25, 33, 33, 20, 7, 26, 28, 40, 36, 27, 0)
s = 60: (0, 21, 35, 44, 34, 11, 17, 19, 31, 27, 14, 0)
s = 61: (0, 24, 27, 64, 21, 15, 16, 18, 35, 17, 20, 0)
s = 62: (0, 19, 29, 49, 52, 11, 22, 22, 70, 29, 15, 0)
s = 63: (0, 16, 31, 53, 29, 12, 22, 25, 75, 25, 22, 0)
s = 64: (0, 16, 23, 24, 47, 10, 33, 15, 52, 39, 16, 0)
s = 65: (0, 18, 46, 32, 38, 10, 41, 13, 55, 24, 21, 0)
s = 66: (0, 20, 34, 46, 25, 10, 15, 37, 48, 18, 25, 0)
s = 67: (0, 13, 33, 30, 25, 7, 19, 27, 52, 19, 22, 0)
s = 68: (0, 12, 20, 26, 22, 8, 19, 28, 38, 24, 13, 0)
s = 69: (0, 19, 22, 51, 25, 9, 22, 23, 54, 21, 15, 0)
s = 70: (0, 32, 28, 54, 39, 10, 22, 17, 67, 19, 10, 0)
s = 71: (0, 13, 34, 67, 21, 8, 12, 28, 39, 25, 28, 0)
s = 72: (0, 20, 29, 45, 40, 12, 20, 13, 40, 25, 15, 0)
s = 73: (0, 17, 19, 60, 32, 16, 16, 40, 50, 13, 19, 0)
s = 74: (0, 12, 23, 31, 23, 14, 25, 15, 58, 22, 17, 0)
s = 75: (0, 18, 34, 30, 25, 11, 27, 26, 59, 22, 12, 0)
s = 76: (0, 28, 35, 51, 24, 14, 20, 22, 39, 17, 33, 0)
s = 77: (0, 13, 39, 29, 41, 15, 20, 30, 54, 18, 12, 0)
s = 78: (0, 17, 21, 52, 23, 14, 20, 26, 34, 37, 23, 0)
s = 79: (0, 28, 30, 49, 29, 13, 22, 20, 45, 24, 16, 0)
s = 80: (0, 24, 21, 39, 20, 10, 13, 19, 45, 24, 16, 0)
s = 81: (0, 19, 24, 35, 28, 14, 15, 31, 71, 26, 25, 0)
s = 82: (0, 21, 20, 55, 38, 9, 17, 16, 57, 37, 21, 0)
s = 83: (0, 29, 22, 25, 31, 14, 32, 14, 32, 16, 14, 0)
s = 84: (0, 21, 27, 38, 18, 10, 19, 27, 45, 20, 21, 0)
s = 85: (0, 18, 21, 33, 18, 11, 18, 38, 26, 21, 17, 0)
s = 86: (0, 15, 23, 35, 27, 10, 22, 30, 48, 17, 14, 0)
s = 87: (0, 34, 28, 41, 20, 10, 19, 15, 54, 21, 17, 0)
s = 88: (0, 26, 38, 50, 23, 8, 27, 20, 46, 33, 24, 0)
s = 89: (0, 23, 25, 25, 24, 11, 36, 24, 50, 18, 22, 0)
s = 90: (0, 14, 30, 53, 22, 12, 14, 19, 53, 15, 24, 0)
s = 91: (0, 19, 23, 29, 31, 7, 28, 25, 46, 20, 21, 0)
s = 92: (0, 20, 35, 30, 28, 10, 15, 19, 50, 19, 15, 0)
s = 93: (0, 28, 31, 32, 30, 16, 22, 24, 62, 34, 12, 0)
s = 94: (0, 19, 25, 26, 41, 19, 31, 17, 33, 23, 19, 0)
s = 95: (0, 14, 30, 43, 31, 11, 17, 35, 58, 21, 26, 0)
s = 96: (0, 15, 25, 57, 25, 9, 20, 26, 46, 26, 29, 0)
s = 97: (0, 19, 42, 44, 30, 20, 23, 29, 45, 26, 13, 0)
s = 98: (0, 12, 23, 33, 20, 15, 13, 20, 73, 28, 19, 0)
s = 99: (0, 18, 19, 27, 22, 9, 23, 33, 29, 28, 21, 0)
s = 100: (0, 16, 27, 35, 43, 11, 18, 30, 37, 26, 18, 0)
s = 101: (0, 27, 27, 25, 26, 14, 18, 28, 26, 13, 25, 0)
s = 102: (0, 13, 19, 45, 35, 11, 20, 34, 51, 20, 21, 0)
s = 103: (0, 27, 30, 46, 34, 11, 28, 25, 41, 24, 17, 0)
s = 104: (0, 20, 14, 32, 50, 13, 16, 20, 57, 16, 16, 0)
s = 105: (0, 12, 35, 53, 32, 8, 22, 22, 82, 35, 25, 0)
s = 106: (0, 23, 24, 35, 33, 9, 24, 15, 41, 13, 28, 0)
s = 107: (0, 24, 26, 36, 34, 15, 20, 22, 50, 15, 18, 0)
s = 108: (0, 21, 33, 45, 32, 13, 29, 23, 40, 25, 27, 0)
s = 109: (0, 14, 32, 49, 53, 8, 26, 35, 49, 24, 17, 0)
s = 110: (0, 27, 19, 51, 20, 19, 21, 27, 67, 29, 24, 0)
s = 111: (0, 18, 20, 53, 45, 15, 26, 21, 32, 21, 17, 0)
s = 112: (0, 18, 33, 40, 22, 10, 28, 25, 77, 32, 22, 0)
s = 113: (0, 11, 23, 72, 23, 22, 24, 23, 62, 20, 25, 0)
s = 114: (0, 12, 17, 28, 34, 9, 18, 18, 39, 28, 16, 0)
s = 115: (0, 14, 30, 58, 19, 14, 14, 31, 28, 34, 28, 0)
s = 116: (0, 19, 24, 50, 24, 15, 26, 33, 38, 24, 18, 0)
s = 117: (0, 16, 20, 39, 37, 8, 15, 20, 56, 20, 28, 0)
s = 118: (0, 33, 39, 34, 30, 14, 19, 17, 71, 17, 16, 0)
s = 119: (0, 14, 23, 33, 43, 12, 26, 30, 50, 24, 21, 0)
s = 120: (0, 27, 31, 32, 30, 18, 26, 23, 61, 30, 15, 0)
s = 121: (0, 22, 41, 44, 30, 12, 31, 32, 54, 33, 15, 0)
s = 122: (0, 22, 18, 49, 30, 11, 25, 18, 42, 13, 16, 0)
s = 123: (0, 18, 29, 31, 22, 10, 21, 20, 58, 37, 16, 0)
s = 124: (0, 24, 21, 35, 29, 13, 19, 37, 63, 20, 14, 0)
s = 125: (0, 19, 23, 27, 35, 12, 18, 20, 42, 47, 11, 0)
s = 126: (0, 16, 35, 35, 23, 12, 27, 23, 38, 28, 15, 0)
s = 127: (0, 23, 17, 56, 27, 11, 31, 24, 53, 22, 22, 0)
s = 128: (0, 25, 14, 54, 42, 14, 21, 16, 52, 22, 20, 0)
s = 129: (0, 16, 24, 60, 24, 9, 15, 17, 36, 30, 21, 0)
s = 130: (0, 24, 44, 31, 39, 8, 12, 22, 55, 31, 20, 0)
s = 131: (0, 20, 16, 60, 34, 10, 33, 40, 39, 32, 35, 0)
s = 132: (0, 18, 13, 41, 26, 12, 23, 24, 44, 23, 15, 0)
s = 133: (0, 20, 17, 53, 39, 19, 28, 16, 62, 28, 24, 0)
s = 134: (0, 22, 23, 49, 26, 15, 14, 18, 55, 22, 12, 0)
s = 135: (0, 16, 41, 62, 23, 14, 29, 18, 54, 27, 15, 0)
s = 136: (0, 13, 27, 44, 24, 13, 18, 26, 53, 36, 13, 0)
s = 137: (0, 19, 36, 31, 48, 7, 17, 15, 67, 22, 20, 0)
s = 138: (0, 25, 24, 38, 27, 11, 27, 31, 46, 18, 18, 0)
s = 139: (0, 20, 38, 33, 22, 12, 16, 16, 34, 16, 20, 0)
s = 140: (0, 17, 21, 37, 32, 11, 15, 18, 62, 14, 15, 0)
s = 141: (0, 12, 20, 35, 37, 18, 13, 23, 79, 20, 21, 0)
s = 142: (0, 22, 36, 37, 19, 8, 14, 33, 59, 22, 30, 0)
s = 143: (0, 17, 22, 33, 39, 9, 14, 19, 75, 27, 17, 0)
s = 144: (0, 17, 29, 44, 32, 14, 12, 25, 53, 29, 31, 0)
s = 145: (0, 16, 26, 62, 27, 11, 22, 17, 43, 18, 17, 0)
s = 146: (0, 18, 30, 67, 34, 16, 21, 30, 47, 20, 12, 0)
s = 147: (0, 18, 47, 42, 28, 16, 19, 30, 33, 38, 18, 0)
s = 148: (0, 18, 38, 33, 49, 13, 23, 24, 71, 18, 18, 0)
s = 149: (0, 22, 31, 32, 18, 14, 26, 23, 30, 21, 24, 0)
s = 150: (0, 19, 21, 30, 20, 7, 25, 20, 54, 33, 14, 0)
s = 151: (0, 19, 18, 62, 19, 12, 17, 30, 59, 28, 18, 0)
s = 152: (0, 17, 25, 30, 17, 15, 30, 20, 34, 27, 14, 0)
s = 153: (0, 23, 25, 58, 26, 11, 23, 20, 44, 29, 15, 0)
s = 154: (0, 21, 23, 24, 34, 11, 21, 19, 55, 33, 26, 0)
s = 155: (0, 19, 22, 42, 34, 7, 36, 19, 40, 31, 13, 0)
s = 156: (0, 18, 15, 34, 27, 17, 25, 30, 42, 17, 14, 0)
s = 157: (0, 21, 22, 45, 29, 11, 22, 40, 70, 26, 19, 0)
s = 158: (0, 15, 25, 39, 47, 17, 38, 15, 30, 28, 21, 0)
s = 159: (0, 25, 23, 38, 28, 12, 20, 23, 43, 26, 22, 0)
s = 160: (0, 18, 28, 38, 33, 15, 27, 37, 48, 38, 13, 0)
s = 161: (0, 22, 18, 26, 25, 16, 27, 16, 32, 26, 27, 0)
s = 162: (0, 23, 23, 42, 19, 13, 29, 29, 46, 35, 21, 0)
s = 163: (0, 25, 23, 29, 26, 19, 13, 15, 72, 27, 21, 0)
s = 164: (0, 33, 27, 45, 30, 15, 29, 17, 43, 27, 10, 0)
s = 165: (0, 13, 14, 66, 46, 9, 23, 40, 50, 35, 18, 0)
s = 166: (0, 24, 14, 49, 21, 13, 28, 30, 33, 19, 24, 0)
s = 167: (0, 22, 38, 41, 37, 12, 24, 17, 78, 20, 12, 0)
s = 168: (0, 22, 17, 49, 18, 9, 30, 20, 46, 15, 32, 0)
s = 169: (0, 16, 18, 28, 37, 18, 22, 31, 45, 16, 14, 0)
s = 170: (0, 15, 23, 48, 21, 14, 21, 27, 36, 15, 13, 0)
s = 171: (0, 24, 31, 32, 31, 11, 16, 38, 65, 38, 14, 0)
s = 172: (0, 14, 24, 40, 26, 18, 23, 15, 50, 22, 20, 0)
s = 173: (0, 21, 24, 54, 28, 9, 15, 28, 35, 15, 11, 0)
s = 174: (0, 14, 38, 31, 31, 8, 15, 24, 35, 25, 20, 0)
s = 175: (0, 19, 32, 45, 27, 11, 35, 24, 37, 34, 27, 0)
s = 176: (0, 29, 36, 36, 42, 14, 21, 15, 69, 21, 13, 0)
s = 177: (0, 18, 16, 65, 29, 17, 12, 38, 36, 36, 20, 0)
s = 178: (0, 16, 17, 49, 25, 11, 18, 30, 38, 14, 17, 0)
s = 179: (0, 16, 21, 36, 22, 18, 16, 17, 34, 34, 22, 0)
s = 180: (0, 23, 22, 45, 31, 9, 17, 20, 37, 18, 18, 0)
s = 181: (0, 12, 20, 38, 19, 11, 23, 34, 59, 26, 13, 0)
s = 182: (0, 22, 25, 45, 24, 14, 16, 25, 36, 18, 11, 0)
s = 183: (0, 20, 19, 69, 22, 21, 14, 27, 79, 26, 19, 0)
s = 184: (0, 14, 23, 37, 46, 11, 16, 20, 34, 34, 23, 0)
s = 185: (0, 13, 35, 54, 48, 16, 18, 17, 54, 24, 18, 0)
s = 186: (0, 32, 29, 31, 33, 9, 17, 28, 49, 17, 27, 0)
s = 187: (0, 15, 40, 26, 39, 13, 12, 16, 57, 33, 17, 0)
s = 188: (0, 19, 30, 46, 25, 10, 15, 30, 52, 24, 15, 0)
s = 189: (0, 27, 32, 50, 45, 9, 21, 25, 50, 21, 17, 0)
s = 190: (0, 17, 14, 36, 43, 10, 22, 17, 46, 20, 13, 0)
s = 191: (0, 21, 21, 46, 23, 11, 12, 35, 77, 24, 26, 0)
s = 192: (0, 13, 21, 34, 18, 10, 18, 22, 51, 29, 17, 0)
s = 193: (0, 24, 23, 39, 31, 15, 22, 21, 37, 24, 22, 0)
s = 194: (0, 16, 21, 46, 40, 16, 29, 21, 65, 20, 14, 0)
s = 195: (0, 27, 29, 71, 49, 19, 28, 28, 34, 26, 15, 0)
s = 196: (0, 12, 32, 37, 27, 9, 27, 19, 39, 35, 15, 0)
s = 197: (0, 13, 29, 46, 22, 20, 27, 22, 47, 26, 13, 0)
s = 198: (0, 15, 22, 54, 21, 11, 19, 17, 44, 21, 18, 0)
s = 199: (0, 16, 28, 67, 21, 11, 22, 16, 35, 36, 20, 0)
s = 200: (0, 16, 16, 30, 33, 9, 26, 19, 54, 34, 16, 0)
************************************************************************
ES/LS-VALUES:
jobnr.   ES(i)    LS(i)
------------------------------------------------------------------------
  0        0        0
  1        0       54
  2        0       70
  3        0       63
  4        6       61
  5       11       67
  6       10       74
  7       14       71
  8       16       80
  9       24       81
 10       16       87
 11       33       91
************************************************************************
BIG-M-VALUES:
M1 = 63, M2 = 260
************************************************************************
